\ LP format - for model browsing. Use MPS format to capture full model detail.
Maximize
  0.0840292250761806 X[0] + 0.0786725947181299 X[1]
   + 0.0459315011170604 X[2] + 0.056630070907759 X[3]
   + 0.00646225175154725 X[4] + 0.0367955900631728 X[5]
   + 0.0522539943354258 X[6] + 0.0473605136562196 X[7]
   + 0.00740022363212739 X[8] + 0.0434046047968693 X[9]
   + 0.0585561562239832 X[10] + 0.0713823552536702 X[11]
   + 0.0842881033808302 X[12] + 0.0151911397776658 X[13]
   + 0.1447097162960386 X[14] + 0.1024309792530925 X[15]
   + 0.0123309022754642 X[16] + 0.0143763661697776 X[17]
   + 0.0109915731830857 X[18] + 0.1762590903619795 X[19]
   + 0.0150048288921124 X[20] + 0.0105228906711199 X[21]
   + 0.0555095460104923 X[22] + 0.00828104706136747 X[23]
   + 0.0389994980130704 X[24] + 0.0318663134733405 X[25]
   + 0.0112047292672628 X[26] + 0.0398892608772906 X[27]
   + 0.0119857994444519 X[28] + 0.025527473453787 X[29]
   + 0.0197539919297033 X[30] + 0.0123227881413002 X[31]
   + 0.0188796574152274 X[32] + 0.0104879952372021 X[33]
   + 0.0219111472826372 X[34] + 0.0340401189332062 X[35]
   + 0.0301139118886321 X[36] + 0.00809463483375336 X[37]
   + 0.0340355122890498 X[38] + 0.0153559358649454 X[39]
   + 0.1176082500160605 X[40] + 0.00675937755297948 X[41]
   + 0.0761199471493028 X[42] + 0.0391700243370446 X[43]
   + 0.123159018459447 X[44] + 0.0789173487825042 X[45]
   + 0.0293293360533533 X[46] + 0.0253750476398832 X[47]
   + 0.0377141265457739 X[48] + 0.0466497600541462 X[49]
   + 0.00584039460460805 X[50] + 0.0425850080702421 X[51]
   + 0.0195983029179671 X[52] + 0.0109029146160014 X[53]
   + 0.0345796578268861 X[54] + 0.0236046731873453 X[55]
   + 0.00561088017821489 X[56]
Subject To
 C2: 30.0233038483 X[0] + 27.7993554151 X[1] + 14.4556648158 X[2]
   + 16.679613249 X[3] + 2.00155358988 X[4] + 11.3421370093 X[5]
   + 16.0124287191 X[6] + 15.1228493458 X[7] + 2.44634327652 X[8]
   + 13.7884802859 X[9] + 17.346797779 X[10] + 22.906668862 X[11]
   + 27.1321708851 X[12] + 4.89268655305 X[13] + 50.4836294337 X[14]
   + 31.3576729082 X[15] + 4.00310717977 X[16] + 5.33747623969 X[17]
   + 3.55831749313 X[18] + 55.1539211435 X[19] + 4.67029170973 X[20]
   + 3.55831749313 X[21] + 19.3483513689 X[22] + 2.66873811985 X[23]
   + 12.0093215393 X[24] + 10.0077679494 X[25] + 3.55831749313 X[26]
   + 12.4541112259 X[27] + 4.00310717977 X[28] + 8.006214359539999 X[29]
   + 6.89424014293 X[30] + 4.22550202309 X[31] + 6.00466076965 X[32]
   + 3.33592264981 X[33] + 7.11663498625 X[34] + 10.6749524794 X[35]
   + 9.34058341946 X[36] + 2.66873811985 X[37] + 10.8973473227 X[38]
   + 4.89268655305 X[39] + 36.9175439912 X[40] + 2.2239484332 X[41]
   + 23.573853392 X[42] + 12.4541112259 X[43] + 40.0310717977 X[44]
   + 25.1306172952 X[45] + 9.11818857614 X[46] + 8.006214359539999 X[47]
   + 11.786926696 X[48] + 14.6780596591 X[49] + 2.00155358988 X[50]
   + 13.1212957559 X[51] + 6.22705561297 X[52] + 3.55831749313 X[53]
   + 10.8973473227 X[54] + 7.78381951622 X[55] + 2.00155358988 X[56]
   <= 100
 C3[0]: - X[0] + Y[0,1] + Y[0,30] + Y[0,31] - Y[1,0] - Y[30,0] - Y[31,0]
   + 12 V[0] >= 0
 C3[1]: - X[1] - Y[0,1] + Y[1,0] + Y[1,2] + Y[1,3] + Y[1,7] + Y[1,31]
   + Y[1,35] - Y[31,1] - Y[2,1] - Y[3,1] - Y[7,1] - Y[35,1] + 12 V[1] >= 0
 C3[2]: - X[2] - Y[1,2] + Y[2,1] + Y[2,3] + Y[2,5] - Y[3,2] - Y[5,2]
   + 11 V[2] >= 0
 C3[3]: - X[3] - Y[1,3] - Y[2,3] + Y[3,1] + Y[3,2] + Y[3,5] + Y[3,6]
   + Y[3,7] + Y[3,10] + Y[3,18] - Y[7,3] - Y[5,3] - Y[6,3] - Y[10,3]
   - Y[18,3] + 11 V[3] >= 0
 C3[4]: - X[4] - Y[6,4] - Y[10,4] - Y[18,4] + Y[4,6] + Y[4,10] + Y[4,18]
   + Y[4,19] - Y[19,4] + 11 V[4] >= 0
 C3[5]: - X[5] - Y[2,5] - Y[3,5] + Y[5,2] + Y[5,3] + 11 V[5] >= 0
 C3[6]: - X[6] - Y[3,6] + Y[6,3] + Y[6,4] + Y[6,10] + Y[6,18] + Y[6,19]
   - Y[10,6] - Y[18,6] - Y[4,6] - Y[19,6] + 11 V[6] >= 0
 C3[7]: - X[7] - Y[1,7] - Y[3,7] + Y[7,1] + Y[7,3] + Y[7,10] + Y[7,14]
   + Y[7,35] - Y[35,7] - Y[10,7] - Y[14,7] + 14 V[7] >= 0
 C3[8]: - X[8] + Y[8,9] + Y[8,11] + Y[8,54] - Y[9,8] - Y[11,8] - Y[54,8]
   + 15 V[8] >= 0
 C3[9]: - X[9] - Y[14,9] - Y[8,9] + Y[9,8] + Y[9,11] + Y[9,12] + Y[9,14]
   + Y[9,36] + Y[9,40] + Y[9,54] - Y[11,9] - Y[54,9] - Y[12,9] - Y[36,9]
   - Y[40,9] + 15 V[9] >= 0
 C3[10]: - X[10] - Y[3,10] - Y[7,10] - Y[6,10] + Y[10,3] + Y[10,4]
   + Y[10,6] + Y[10,7] + Y[10,14] + Y[10,18] + Y[10,19] - Y[18,10]
   - Y[4,10] - Y[19,10] - Y[14,10] + 7 V[10] >= 0
 C3[11]: - X[11] - Y[8,11] - Y[9,11] + Y[11,8] + Y[11,9] + Y[11,12]
   + Y[11,13] + Y[11,42] + Y[11,43] + Y[11,44] + Y[11,54] - Y[54,11]
   - Y[12,11] - Y[13,11] - Y[42,11] - Y[43,11] - Y[44,11] + 14 V[11] >= 0
 C3[12]: - X[12] - Y[14,12] - Y[9,12] - Y[11,12] + Y[12,9] + Y[12,11]
   + Y[12,14] + Y[12,17] + Y[12,43] + Y[12,48] - Y[43,12] - Y[17,12]
   - Y[48,12] + 12 V[12] >= 0
 C3[13]: - X[13] - Y[11,13] + Y[13,11] + Y[13,42] + Y[13,44] - Y[42,13]
   - Y[44,13] + 14 V[13] >= 0
 C3[14]: - X[14] - Y[7,14] - Y[35,14] - Y[10,14] - Y[19,14] + Y[14,7]
   + Y[14,9] + Y[14,10] + Y[14,12] + Y[14,17] + Y[14,19] + Y[14,35]
   + Y[14,36] + Y[14,48] - Y[9,14] - Y[12,14] - Y[36,14] - Y[17,14]
   - Y[48,14] + 10 V[14] >= 0
 C3[15]: - X[15] - Y[19,15] + Y[15,16] + Y[15,19] + Y[15,22] + Y[15,24]
   - Y[16,15] - Y[22,15] - Y[24,15] + 11 V[15] >= 0
 C3[16]: - X[16] - Y[15,16] + Y[16,15] + Y[16,22] + Y[16,23] + Y[16,47]
   + Y[16,51] - Y[22,16] - Y[23,16] - Y[47,16] - Y[51,16] + 13 V[16] >= 0
 C3[17]: - X[17] - Y[19,17] - Y[14,17] - Y[12,17] + Y[17,12] + Y[17,14]
   + Y[17,19] + Y[17,46] + Y[17,48] - Y[48,17] - Y[46,17] + 13 V[17] >= 0
 C3[18]: - X[18] - Y[3,18] - Y[6,18] - Y[10,18] + Y[18,3] + Y[18,4]
   + Y[18,6] + Y[18,10] - Y[4,18] + 6 V[18] >= 0
 C3[19]: - X[19] - Y[6,19] - Y[10,19] - Y[4,19] + Y[19,4] + Y[19,6]
   + Y[19,10] + Y[19,14] + Y[19,15] + Y[19,17] + Y[19,20] + Y[19,24]
   + Y[19,25] + Y[19,46] + Y[19,49] - Y[14,19] - Y[17,19] - Y[15,19]
   - Y[24,19] - Y[46,19] - Y[20,19] - Y[25,19] - Y[49,19] + 9 V[19] >= 0
 C3[20]: - X[20] - Y[19,20] + Y[20,19] + 9 V[20] >= 0
 C3[21]: - X[21] - Y[22,21] - Y[24,21] - Y[49,21] + Y[21,22] + Y[21,24]
   + Y[21,49] + Y[21,50] - Y[50,21] + 14 V[21] >= 0
 C3[22]: - X[22] - Y[15,22] - Y[16,22] + Y[22,15] + Y[22,16] + Y[22,21]
   + Y[22,24] + Y[22,47] + Y[22,49] + Y[22,50] - Y[24,22] - Y[47,22]
   - Y[49,22] - Y[21,22] - Y[50,22] + 13 V[22] >= 0
 C3[23]: - X[23] - Y[16,23] + Y[23,16] + Y[23,47] + Y[23,51] - Y[47,23]
   - Y[51,23] + 13 V[23] >= 0
 C3[24]: - X[24] - Y[19,24] - Y[15,24] - Y[22,24] + Y[24,15] + Y[24,19]
   + Y[24,21] + Y[24,22] + Y[24,25] + Y[24,46] + Y[24,49] - Y[46,24]
   - Y[25,24] - Y[49,24] - Y[21,24] + 14 V[24] >= 0
 C3[25]: - X[25] - Y[19,25] - Y[24,25] + Y[25,19] + Y[25,24] + 14 V[25]
   >= 0
 C3[26]: - X[26] - Y[44,26] + Y[26,44] + Y[26,45] - Y[45,26] + 13 V[26]
   >= 0
 C3[27]: - X[27] - Y[44,27] - Y[47,27] - Y[51,27] - Y[45,27] + Y[27,28]
   + Y[27,44] + Y[27,45] + Y[27,47] + Y[27,51] + Y[27,52] - Y[28,27]
   - Y[52,27] + 13 V[27] >= 0
 C3[28]: - X[28] - Y[47,28] - Y[46,28] - Y[49,28] - Y[50,28] - Y[27,28]
   + Y[28,27] + Y[28,46] + Y[28,47] + Y[28,49] + Y[28,50] + Y[28,52]
   - Y[52,28] + 13 V[28] >= 0
 C3[29]: - X[29] - Y[51,29] - Y[45,29] + Y[29,45] + Y[29,51] + 13 V[29]
   >= 0
 C3[30]: - X[30] - Y[0,30] + Y[30,0] + Y[30,32] + Y[30,38] + Y[30,40]
   - Y[40,30] - Y[32,30] - Y[38,30] + 15 V[30] >= 0
 C3[31]: - X[31] - Y[0,31] - Y[1,31] + Y[31,0] + Y[31,1] + Y[31,34]
   + Y[31,35] + Y[31,37] + Y[31,39] + Y[31,40] - Y[35,31] - Y[40,31]
   - Y[34,31] - Y[37,31] - Y[39,31] + 15 V[31] >= 0
 C3[32]: - X[32] - Y[30,32] - Y[40,32] + Y[32,30] + Y[32,33] + Y[32,38]
   + Y[32,40] + Y[32,55] - Y[38,32] - Y[33,32] - Y[55,32] + 15 V[32] >= 0
 C3[33]: - X[33] - Y[40,33] - Y[32,33] + Y[33,32] + Y[33,40] + Y[33,55]
   - Y[55,33] + 15 V[33] >= 0
 C3[34]: - X[34] - Y[31,34] - Y[40,34] - Y[38,34] + Y[34,31] + Y[34,37]
   + Y[34,38] + Y[34,40] - Y[37,34] + 15 V[34] >= 0
 C3[35]: - X[35] - Y[1,35] - Y[31,35] - Y[7,35] + Y[35,1] + Y[35,7]
   + Y[35,14] + Y[35,31] + Y[35,36] + Y[35,40] + Y[35,41] - Y[14,35]
   - Y[36,35] - Y[40,35] - Y[41,35] + 15 V[35] >= 0
 C3[36]: - X[36] - Y[35,36] - Y[14,36] - Y[9,36] + Y[36,9] + Y[36,14]
   + Y[36,35] + Y[36,40] + Y[36,41] - Y[40,36] - Y[41,36] + 15 V[36] >= 0
 C3[37]: - X[37] - Y[31,37] - Y[38,37] - Y[34,37] + Y[37,31] + Y[37,34]
   + Y[37,38] + Y[37,39] - Y[39,37] + 14 V[37] >= 0
 C3[38]: - X[38] - Y[30,38] - Y[40,38] - Y[32,38] + Y[38,30] + Y[38,32]
   + Y[38,34] + Y[38,37] + Y[38,39] + Y[38,40] - Y[34,38] - Y[37,38]
   - Y[39,38] + 14 V[38] >= 0
 C3[39]: - X[39] - Y[31,39] - Y[38,39] - Y[37,39] + Y[39,31] + Y[39,37]
   + Y[39,38] + 14 V[39] >= 0
 C3[40]: - X[40] - Y[30,40] - Y[31,40] - Y[35,40] - Y[9,40] - Y[54,40]
   - Y[36,40] + Y[40,9] + Y[40,30] + Y[40,31] + Y[40,32] + Y[40,33]
   + Y[40,34] + Y[40,35] + Y[40,36] + Y[40,38] + Y[40,41] + Y[40,54]
   + Y[40,55] + Y[40,56] - Y[32,40] - Y[38,40] - Y[34,40] - Y[33,40]
   - Y[55,40] - Y[41,40] - Y[56,40] + 11 V[40] >= 0
 C3[41]: - X[41] - Y[35,41] - Y[36,41] - Y[40,41] + Y[41,35] + Y[41,36]
   + Y[41,40] + 14 V[41] >= 0
 C3[42]: - X[42] - Y[11,42] - Y[13,42] + Y[42,11] + Y[42,13] + Y[42,44]
   - Y[44,42] + 10 V[42] >= 0
 C3[43]: - X[43] - Y[11,43] - Y[12,43] + Y[43,11] + Y[43,12] + Y[43,44]
   + Y[43,48] - Y[44,43] - Y[48,43] + 13 V[43] >= 0
 C3[44]: - X[44] - Y[11,44] - Y[13,44] - Y[42,44] - Y[43,44] + Y[44,11]
   + Y[44,13] + Y[44,26] + Y[44,27] + Y[44,42] + Y[44,43] + Y[44,45]
   + Y[44,48] + Y[44,52] + Y[44,53] - Y[48,44] - Y[26,44] - Y[45,44]
   - Y[27,44] - Y[52,44] - Y[53,44] + 12 V[44] >= 0
 C3[45]: - X[45] - Y[44,45] - Y[51,45] - Y[26,45] + Y[45,26] + Y[45,27]
   + Y[45,29] + Y[45,44] + Y[45,51] - Y[27,45] - Y[29,45] + 13 V[45] >= 0
 C3[46]: - X[46] - Y[19,46] - Y[17,46] - Y[48,46] - Y[24,46] + Y[46,17]
   + Y[46,19] + Y[46,24] + Y[46,28] + Y[46,48] + Y[46,49] + Y[46,52]
   + Y[46,53] - Y[49,46] - Y[28,46] - Y[52,46] - Y[53,46] + 13 V[46] >= 0
 C3[47]: - X[47] - Y[16,47] - Y[22,47] - Y[23,47] + Y[47,16] + Y[47,22]
   + Y[47,23] + Y[47,27] + Y[47,28] + Y[47,50] + Y[47,51] - Y[51,47]
   - Y[50,47] - Y[27,47] - Y[28,47] + 13 V[47] >= 0
 C3[48]: - X[48] - Y[14,48] - Y[12,48] - Y[43,48] - Y[44,48] - Y[17,48]
   + Y[48,12] + Y[48,14] + Y[48,17] + Y[48,43] + Y[48,44] + Y[48,46]
   + Y[48,52] + Y[48,53] - Y[46,48] - Y[52,48] - Y[53,48] + 12 V[48] >= 0
 C3[49]: - X[49] - Y[19,49] - Y[22,49] - Y[24,49] - Y[46,49] + Y[49,19]
   + Y[49,21] + Y[49,22] + Y[49,24] + Y[49,28] + Y[49,46] + Y[49,50]
   - Y[21,49] - Y[50,49] - Y[28,49] + 14 V[49] >= 0
 C3[50]: - X[50] - Y[22,50] - Y[47,50] - Y[49,50] - Y[21,50] + Y[50,21]
   + Y[50,22] + Y[50,28] + Y[50,47] + Y[50,49] - Y[28,50] + 13 V[50] >= 0
 C3[51]: - X[51] - Y[16,51] - Y[23,51] - Y[47,51] + Y[51,16] + Y[51,23]
   + Y[51,27] + Y[51,29] + Y[51,45] + Y[51,47] - Y[45,51] - Y[27,51]
   - Y[29,51] + 12 V[51] >= 0
 C3[52]: - X[52] - Y[44,52] - Y[48,52] - Y[46,52] - Y[27,52] - Y[28,52]
   + Y[52,27] + Y[52,28] + Y[52,44] + Y[52,46] + Y[52,48] + Y[52,53]
   - Y[53,52] + 12 V[52] >= 0
 C3[53]: - X[53] - Y[44,53] - Y[48,53] - Y[46,53] - Y[52,53] + Y[53,44]
   + Y[53,46] + Y[53,48] + Y[53,52] + 12 V[53] >= 0
 C3[54]: - X[54] - Y[8,54] - Y[9,54] - Y[11,54] + Y[54,8] + Y[54,9]
   + Y[54,11] + Y[54,40] + Y[54,56] - Y[40,54] - Y[56,54] + 13 V[54] >= 0
 C3[55]: - X[55] - Y[40,55] - Y[32,55] - Y[33,55] + Y[55,32] + Y[55,33]
   + Y[55,40] + Y[55,56] - Y[56,55] + 13 V[55] >= 0
 C3[56]: - X[56] - Y[54,56] - Y[40,56] - Y[55,56] + Y[56,40] + Y[56,54]
   + Y[56,55] + 13 V[56] >= 0
 C4: V[0] + V[1] + V[2] + V[3] + V[4] + V[5] + V[6] + V[7] + V[8] + V[9]
   + V[10] + V[11] + V[12] + V[13] + V[14] + V[15] + V[16] + V[17] + V[18]
   + V[19] + V[20] + V[21] + V[22] + V[23] + V[24] + V[25] + V[26] + V[27]
   + V[28] + V[29] + V[30] + V[31] + V[32] + V[33] + V[34] + V[35] + V[36]
   + V[37] + V[38] + V[39] + V[40] + V[41] + V[42] + V[43] + V[44] + V[45]
   + V[46] + V[47] + V[48] + V[49] + V[50] + V[51] + V[52] + V[53] + V[54]
   + V[55] + V[56] = 1
 C5[0]: - 11 X[0] + Y[0,1] + Y[0,30] + Y[0,31] <= 0
 C5[1]: - 11 X[1] + Y[1,0] + Y[1,2] + Y[1,3] + Y[1,7] + Y[1,31] + Y[1,35]
   <= 0
 C5[2]: - 10 X[2] + Y[2,1] + Y[2,3] + Y[2,5] <= 0
 C5[3]: - 10 X[3] + Y[3,1] + Y[3,2] + Y[3,5] + Y[3,6] + Y[3,7] + Y[3,10]
   + Y[3,18] <= 0
 C5[4]: - 10 X[4] + Y[4,6] + Y[4,10] + Y[4,18] + Y[4,19] <= 0
 C5[5]: - 10 X[5] + Y[5,2] + Y[5,3] <= 0
 C5[6]: - 10 X[6] + Y[6,3] + Y[6,4] + Y[6,10] + Y[6,18] + Y[6,19] <= 0
 C5[7]: - 13 X[7] + Y[7,1] + Y[7,3] + Y[7,10] + Y[7,14] + Y[7,35] <= 0
 C5[8]: - 14 X[8] + Y[8,9] + Y[8,11] + Y[8,54] <= 0
 C5[9]: - 14 X[9] + Y[9,8] + Y[9,11] + Y[9,12] + Y[9,14] + Y[9,36]
   + Y[9,40] + Y[9,54] <= 0
 C5[10]: - 6 X[10] + Y[10,3] + Y[10,4] + Y[10,6] + Y[10,7] + Y[10,14]
   + Y[10,18] + Y[10,19] <= 0
 C5[11]: - 13 X[11] + Y[11,8] + Y[11,9] + Y[11,12] + Y[11,13] + Y[11,42]
   + Y[11,43] + Y[11,44] + Y[11,54] <= 0
 C5[12]: - 11 X[12] + Y[12,9] + Y[12,11] + Y[12,14] + Y[12,17] + Y[12,43]
   + Y[12,48] <= 0
 C5[13]: - 13 X[13] + Y[13,11] + Y[13,42] + Y[13,44] <= 0
 C5[14]: - 9 X[14] + Y[14,7] + Y[14,9] + Y[14,10] + Y[14,12] + Y[14,17]
   + Y[14,19] + Y[14,35] + Y[14,36] + Y[14,48] <= 0
 C5[15]: - 10 X[15] + Y[15,16] + Y[15,19] + Y[15,22] + Y[15,24] <= 0
 C5[16]: - 12 X[16] + Y[16,15] + Y[16,22] + Y[16,23] + Y[16,47] + Y[16,51]
   <= 0
 C5[17]: - 12 X[17] + Y[17,12] + Y[17,14] + Y[17,19] + Y[17,46] + Y[17,48]
   <= 0
 C5[18]: - 5 X[18] + Y[18,3] + Y[18,4] + Y[18,6] + Y[18,10] <= 0
 C5[19]: - 8 X[19] + Y[19,4] + Y[19,6] + Y[19,10] + Y[19,14] + Y[19,15]
   + Y[19,17] + Y[19,20] + Y[19,24] + Y[19,25] + Y[19,46] + Y[19,49] <= 0
 C5[20]: - 8 X[20] + Y[20,19] <= 0
 C5[21]: - 13 X[21] + Y[21,22] + Y[21,24] + Y[21,49] + Y[21,50] <= 0
 C5[22]: - 12 X[22] + Y[22,15] + Y[22,16] + Y[22,21] + Y[22,24] + Y[22,47]
   + Y[22,49] + Y[22,50] <= 0
 C5[23]: - 12 X[23] + Y[23,16] + Y[23,47] + Y[23,51] <= 0
 C5[24]: - 13 X[24] + Y[24,15] + Y[24,19] + Y[24,21] + Y[24,22] + Y[24,25]
   + Y[24,46] + Y[24,49] <= 0
 C5[25]: - 13 X[25] + Y[25,19] + Y[25,24] <= 0
 C5[26]: - 12 X[26] + Y[26,44] + Y[26,45] <= 0
 C5[27]: - 12 X[27] + Y[27,28] + Y[27,44] + Y[27,45] + Y[27,47] + Y[27,51]
   + Y[27,52] <= 0
 C5[28]: - 12 X[28] + Y[28,27] + Y[28,46] + Y[28,47] + Y[28,49] + Y[28,50]
   + Y[28,52] <= 0
 C5[29]: - 12 X[29] + Y[29,45] + Y[29,51] <= 0
 C5[30]: - 14 X[30] + Y[30,0] + Y[30,32] + Y[30,38] + Y[30,40] <= 0
 C5[31]: - 14 X[31] + Y[31,0] + Y[31,1] + Y[31,34] + Y[31,35] + Y[31,37]
   + Y[31,39] + Y[31,40] <= 0
 C5[32]: - 14 X[32] + Y[32,30] + Y[32,33] + Y[32,38] + Y[32,40] + Y[32,55]
   <= 0
 C5[33]: - 14 X[33] + Y[33,32] + Y[33,40] + Y[33,55] <= 0
 C5[34]: - 14 X[34] + Y[34,31] + Y[34,37] + Y[34,38] + Y[34,40] <= 0
 C5[35]: - 14 X[35] + Y[35,1] + Y[35,7] + Y[35,14] + Y[35,31] + Y[35,36]
   + Y[35,40] + Y[35,41] <= 0
 C5[36]: - 14 X[36] + Y[36,9] + Y[36,14] + Y[36,35] + Y[36,40] + Y[36,41]
   <= 0
 C5[37]: - 13 X[37] + Y[37,31] + Y[37,34] + Y[37,38] + Y[37,39] <= 0
 C5[38]: - 13 X[38] + Y[38,30] + Y[38,32] + Y[38,34] + Y[38,37] + Y[38,39]
   + Y[38,40] <= 0
 C5[39]: - 13 X[39] + Y[39,31] + Y[39,37] + Y[39,38] <= 0
 C5[40]: - 10 X[40] + Y[40,9] + Y[40,30] + Y[40,31] + Y[40,32] + Y[40,33]
   + Y[40,34] + Y[40,35] + Y[40,36] + Y[40,38] + Y[40,41] + Y[40,54]
   + Y[40,55] + Y[40,56] <= 0
 C5[41]: - 13 X[41] + Y[41,35] + Y[41,36] + Y[41,40] <= 0
 C5[42]: - 9 X[42] + Y[42,11] + Y[42,13] + Y[42,44] <= 0
 C5[43]: - 12 X[43] + Y[43,11] + Y[43,12] + Y[43,44] + Y[43,48] <= 0
 C5[44]: - 11 X[44] + Y[44,11] + Y[44,13] + Y[44,26] + Y[44,27] + Y[44,42]
   + Y[44,43] + Y[44,45] + Y[44,48] + Y[44,52] + Y[44,53] <= 0
 C5[45]: - 12 X[45] + Y[45,26] + Y[45,27] + Y[45,29] + Y[45,44] + Y[45,51]
   <= 0
 C5[46]: - 12 X[46] + Y[46,17] + Y[46,19] + Y[46,24] + Y[46,28] + Y[46,48]
   + Y[46,49] + Y[46,52] + Y[46,53] <= 0
 C5[47]: - 12 X[47] + Y[47,16] + Y[47,22] + Y[47,23] + Y[47,27] + Y[47,28]
   + Y[47,50] + Y[47,51] <= 0
 C5[48]: - 11 X[48] + Y[48,12] + Y[48,14] + Y[48,17] + Y[48,43] + Y[48,44]
   + Y[48,46] + Y[48,52] + Y[48,53] <= 0
 C5[49]: - 13 X[49] + Y[49,19] + Y[49,21] + Y[49,22] + Y[49,24] + Y[49,28]
   + Y[49,46] + Y[49,50] <= 0
 C5[50]: - 12 X[50] + Y[50,21] + Y[50,22] + Y[50,28] + Y[50,47] + Y[50,49]
   <= 0
 C5[51]: - 11 X[51] + Y[51,16] + Y[51,23] + Y[51,27] + Y[51,29] + Y[51,45]
   + Y[51,47] <= 0
 C5[52]: - 11 X[52] + Y[52,27] + Y[52,28] + Y[52,44] + Y[52,46] + Y[52,48]
   + Y[52,53] <= 0
 C5[53]: - 11 X[53] + Y[53,44] + Y[53,46] + Y[53,48] + Y[53,52] <= 0
 C5[54]: - 12 X[54] + Y[54,8] + Y[54,9] + Y[54,11] + Y[54,40] + Y[54,56]
   <= 0
 C5[55]: - 12 X[55] + Y[55,32] + Y[55,33] + Y[55,40] + Y[55,56] <= 0
 C5[56]: - 12 X[56] + Y[56,40] + Y[56,54] + Y[56,55] <= 0
 C6[0]: - X[0] + V[0] <= 0
 C6[1]: - X[1] + V[1] <= 0
 C6[2]: - X[2] + V[2] <= 0
 C6[3]: - X[3] + V[3] <= 0
 C6[4]: - X[4] + V[4] <= 0
 C6[5]: - X[5] + V[5] <= 0
 C6[6]: - X[6] + V[6] <= 0
 C6[7]: - X[7] + V[7] <= 0
 C6[8]: - X[8] + V[8] <= 0
 C6[9]: - X[9] + V[9] <= 0
 C6[10]: - X[10] + V[10] <= 0
 C6[11]: - X[11] + V[11] <= 0
 C6[12]: - X[12] + V[12] <= 0
 C6[13]: - X[13] + V[13] <= 0
 C6[14]: - X[14] + V[14] <= 0
 C6[15]: - X[15] + V[15] <= 0
 C6[16]: - X[16] + V[16] <= 0
 C6[17]: - X[17] + V[17] <= 0
 C6[18]: - X[18] + V[18] <= 0
 C6[19]: - X[19] + V[19] <= 0
 C6[20]: - X[20] + V[20] <= 0
 C6[21]: - X[21] + V[21] <= 0
 C6[22]: - X[22] + V[22] <= 0
 C6[23]: - X[23] + V[23] <= 0
 C6[24]: - X[24] + V[24] <= 0
 C6[25]: - X[25] + V[25] <= 0
 C6[26]: - X[26] + V[26] <= 0
 C6[27]: - X[27] + V[27] <= 0
 C6[28]: - X[28] + V[28] <= 0
 C6[29]: - X[29] + V[29] <= 0
 C6[30]: - X[30] + V[30] <= 0
 C6[31]: - X[31] + V[31] <= 0
 C6[32]: - X[32] + V[32] <= 0
 C6[33]: - X[33] + V[33] <= 0
 C6[34]: - X[34] + V[34] <= 0
 C6[35]: - X[35] + V[35] <= 0
 C6[36]: - X[36] + V[36] <= 0
 C6[37]: - X[37] + V[37] <= 0
 C6[38]: - X[38] + V[38] <= 0
 C6[39]: - X[39] + V[39] <= 0
 C6[40]: - X[40] + V[40] <= 0
 C6[41]: - X[41] + V[41] <= 0
 C6[42]: - X[42] + V[42] <= 0
 C6[43]: - X[43] + V[43] <= 0
 C6[44]: - X[44] + V[44] <= 0
 C6[45]: - X[45] + V[45] <= 0
 C6[46]: - X[46] + V[46] <= 0
 C6[47]: - X[47] + V[47] <= 0
 C6[48]: - X[48] + V[48] <= 0
 C6[49]: - X[49] + V[49] <= 0
 C6[50]: - X[50] + V[50] <= 0
 C6[51]: - X[51] + V[51] <= 0
 C6[52]: - X[52] + V[52] <= 0
 C6[53]: - X[53] + V[53] <= 0
 C6[54]: - X[54] + V[54] <= 0
 C6[55]: - X[55] + V[55] <= 0
 C6[56]: - X[56] + V[56] <= 0
 C7[0]: X[0] <= 1
 C7[1]: X[1] <= 1
 C7[2]: X[2] <= 1
 C7[3]: X[3] <= 1
 C7[4]: X[4] <= 1
 C7[5]: X[5] <= 1
 C7[6]: X[6] <= 1
 C7[7]: X[7] <= 1
 C7[8]: X[8] <= 1
 C7[9]: X[9] <= 1
 C7[10]: X[10] <= 1
 C7[11]: X[11] <= 1
 C7[12]: X[12] <= 1
 C7[13]: X[13] <= 1
 C7[14]: X[14] <= 1
 C7[15]: X[15] <= 1
 C7[16]: X[16] <= 1
 C7[17]: X[17] <= 1
 C7[18]: X[18] <= 1
 C7[19]: X[19] <= 1
 C7[20]: X[20] <= 1
 C7[21]: X[21] <= 1
 C7[22]: X[22] <= 1
 C7[23]: X[23] <= 1
 C7[24]: X[24] <= 1
 C7[25]: X[25] <= 1
 C7[26]: X[26] <= 1
 C7[27]: X[27] <= 1
 C7[28]: X[28] <= 1
 C7[29]: X[29] <= 1
 C7[30]: X[30] <= 1
 C7[31]: X[31] <= 1
 C7[32]: X[32] <= 1
 C7[33]: X[33] <= 1
 C7[34]: X[34] <= 1
 C7[35]: X[35] <= 1
 C7[36]: X[36] <= 1
 C7[37]: X[37] <= 1
 C7[38]: X[38] <= 1
 C7[39]: X[39] <= 1
 C7[40]: X[40] <= 1
 C7[41]: X[41] <= 1
 C7[42]: X[42] <= 1
 C7[43]: X[43] <= 1
 C7[44]: X[44] <= 1
 C7[45]: X[45] <= 1
 C7[46]: X[46] <= 1
 C7[47]: X[47] <= 1
 C7[48]: X[48] <= 1
 C7[49]: X[49] <= 1
 C7[50]: X[50] <= 1
 C7[51]: X[51] <= 1
 C7[52]: X[52] <= 1
 C7[53]: X[53] <= 1
 C7[54]: X[54] <= 1
 C7[55]: X[55] <= 1
 C7[56]: X[56] <= 1
 C11[1,0]: X[0] + V[1] <= 1
 C11[2,1]: X[1] + V[2] <= 1
 C11[3,1]: X[1] + V[3] <= 1
 C11[3,2]: X[2] + V[3] <= 1
 C11[5,3]: X[3] + V[5] <= 1
 C11[6,3]: X[3] + V[6] <= 1
 C11[7,1]: X[1] + V[7] <= 1
 C11[7,3]: X[3] + V[7] <= 1
 C11[10,3]: X[3] + V[10] <= 1
 C11[10,7]: X[7] + V[10] <= 1
 C11[11,9]: X[9] + V[11] <= 1
 C11[12,9]: X[9] + V[12] <= 1
 C11[12,11]: X[11] + V[12] <= 1
 C11[14,7]: X[7] + V[14] <= 1
 C11[14,9]: X[9] + V[14] <= 1
 C11[14,10]: X[10] + V[14] <= 1
 C11[14,12]: X[12] + V[14] <= 1
 C11[16,15]: X[15] + V[16] <= 1
 C11[17,14]: X[14] + V[17] <= 1
 C11[18,10]: X[10] + V[18] <= 1
 C11[19,6]: X[6] + V[19] <= 1
 C11[19,10]: X[10] + V[19] <= 1
 C11[19,14]: X[14] + V[19] <= 1
 C11[19,15]: X[15] + V[19] <= 1
 C11[19,17]: X[17] + V[19] <= 1
 C11[22,15]: X[15] + V[22] <= 1
 C11[22,16]: X[16] + V[22] <= 1
 C11[22,21]: X[21] + V[22] <= 1
 C11[24,15]: X[15] + V[24] <= 1
 C11[24,19]: X[19] + V[24] <= 1
 C11[24,22]: X[22] + V[24] <= 1
 C11[25,19]: X[19] + V[25] <= 1
 C11[28,27]: X[27] + V[28] <= 1
 C11[31,0]: X[0] + V[31] <= 1
 C11[31,1]: X[1] + V[31] <= 1
 C11[32,30]: X[30] + V[32] <= 1
 C11[34,31]: X[31] + V[34] <= 1
 C11[35,1]: X[1] + V[35] <= 1
 C11[35,7]: X[7] + V[35] <= 1
 C11[35,14]: X[14] + V[35] <= 1
 C11[36,9]: X[9] + V[36] <= 1
 C11[36,14]: X[14] + V[36] <= 1
 C11[36,35]: X[35] + V[36] <= 1
 C11[37,34]: X[34] + V[37] <= 1
 C11[38,30]: X[30] + V[38] <= 1
 C11[38,34]: X[34] + V[38] <= 1
 C11[39,31]: X[31] + V[39] <= 1
 C11[39,38]: X[38] + V[39] <= 1
 C11[40,9]: X[9] + V[40] <= 1
 C11[40,31]: X[31] + V[40] <= 1
 C11[40,32]: X[32] + V[40] <= 1
 C11[40,33]: X[33] + V[40] <= 1
 C11[40,34]: X[34] + V[40] <= 1
 C11[40,35]: X[35] + V[40] <= 1
 C11[40,36]: X[36] + V[40] <= 1
 C11[40,38]: X[38] + V[40] <= 1
 C11[41,40]: X[40] + V[41] <= 1
 C11[42,11]: X[11] + V[42] <= 1
 C11[43,11]: X[11] + V[43] <= 1
 C11[43,12]: X[12] + V[43] <= 1
 C11[44,11]: X[11] + V[44] <= 1
 C11[44,13]: X[13] + V[44] <= 1
 C11[44,27]: X[27] + V[44] <= 1
 C11[44,42]: X[42] + V[44] <= 1
 C11[44,43]: X[43] + V[44] <= 1
 C11[45,27]: X[27] + V[45] <= 1
 C11[45,29]: X[29] + V[45] <= 1
 C11[45,44]: X[44] + V[45] <= 1
 C11[46,17]: X[17] + V[46] <= 1
 C11[46,19]: X[19] + V[46] <= 1
 C11[47,16]: X[16] + V[47] <= 1
 C11[47,22]: X[22] + V[47] <= 1
 C11[47,23]: X[23] + V[47] <= 1
 C11[47,27]: X[27] + V[47] <= 1
 C11[47,28]: X[28] + V[47] <= 1
 C11[48,12]: X[12] + V[48] <= 1
 C11[48,17]: X[17] + V[48] <= 1
 C11[48,43]: X[43] + V[48] <= 1
 C11[48,44]: X[44] + V[48] <= 1
 C11[48,46]: X[46] + V[48] <= 1
 C11[49,21]: X[21] + V[49] <= 1
 C11[49,24]: X[24] + V[49] <= 1
 C11[49,28]: X[28] + V[49] <= 1
 C11[49,46]: X[46] + V[49] <= 1
 C11[50,22]: X[22] + V[50] <= 1
 C11[50,47]: X[47] + V[50] <= 1
 C11[50,49]: X[49] + V[50] <= 1
 C11[51,27]: X[27] + V[51] <= 1
 C11[51,29]: X[29] + V[51] <= 1
 C11[51,45]: X[45] + V[51] <= 1
 C11[51,47]: X[47] + V[51] <= 1
 C11[52,27]: X[27] + V[52] <= 1
 C11[52,28]: X[28] + V[52] <= 1
 C11[52,44]: X[44] + V[52] <= 1
 C11[52,46]: X[46] + V[52] <= 1
 C11[53,44]: X[44] + V[53] <= 1
 C11[53,48]: X[48] + V[53] <= 1
 C11[54,8]: X[8] + V[54] <= 1
 C11[54,9]: X[9] + V[54] <= 1
 C11[54,11]: X[11] + V[54] <= 1
 C11[54,40]: X[40] + V[54] <= 1
 C11[55,32]: X[32] + V[55] <= 1
 C11[55,33]: X[33] + V[55] <= 1
 C11[55,40]: X[40] + V[55] <= 1
 C11[56,40]: X[40] + V[56] <= 1
 C11[56,54]: X[54] + V[56] <= 1
Bounds
Binaries
 X[0] X[1] X[2] X[3] X[4] X[5] X[6] X[7] X[8] X[9] X[10] X[11] X[12] X[13]
 X[14] X[15] X[16] X[17] X[18] X[19] X[20] X[21] X[22] X[23] X[24] X[25]
 X[26] X[27] X[28] X[29] X[30] X[31] X[32] X[33] X[34] X[35] X[36] X[37]
 X[38] X[39] X[40] X[41] X[42] X[43] X[44] X[45] X[46] X[47] X[48] X[49]
 X[50] X[51] X[52] X[53] X[54] X[55] X[56] V[0] V[1] V[2] V[3] V[4] V[5]
 V[6] V[7] V[8] V[9] V[10] V[11] V[12] V[13] V[14] V[15] V[16] V[17] V[18]
 V[19] V[20] V[21] V[22] V[23] V[24] V[25] V[26] V[27] V[28] V[29] V[30]
 V[31] V[32] V[33] V[34] V[35] V[36] V[37] V[38] V[39] V[40] V[41] V[42]
 V[43] V[44] V[45] V[46] V[47] V[48] V[49] V[50] V[51] V[52] V[53] V[54]
 V[55] V[56]
End
